WARNING: for repeatability, setting FPU to use double precision
============================[ Problem Statistics ]=============================
|                                                                             |
|  Number of variables:           568                                         |
|  Number of clauses:          553495                                         |
|  Parse time:                   0.37 s                                       |
|                                                                             |
c ============================[ Search Statistics ]==============================
c | Conflicts |          ORIGINAL         |          LEARNT          | Progress |
c |           |    Vars  Clauses Literals |    Limit  Clauses Lit/Cl |          |
c ===============================================================================
c ===============================================================================
restarts                  : 1422
conflicts                 : 669097         (6603 /sec)
decisions                 : 11253901       (0.00 % random) (111062 /sec)
propagations              : 14872077       (146769 /sec)
conflict literals         : 9086892        (1.07 % deleted)

conflicts w/ DIP found    : 33076          (4.94 % of conflicts)
conflicts w/ dangerous DIP: 0              (0.00 % of conflicts)
conflicts w/ DIP-learning : 2              (0.00 % of conflicts)
decisions on ext vars     : 25             (0.00 % of decisions)
total ext vars            : 2           
tried delete ext vars     : 0           
deleted ext vars          : 0           
max ext vars              : 2           

Memory used               : 158.00 MB
CPU time                  : 101.33 s
DIP computation time      : 1.72781 s (1.71 % of total time)
ER_sel time               : 0.537374 s
ER_add time               : 3e-05 s
ER_delC time              : 0 s
ER_delV time              : 0 s
ER_sub time               : 0.641301 s
ER_stat time              : 0 s

SATISFIABLE
